3 2 10 9 7 6 9 10 6 -1 
8 8 -1 9 1 7 4 8 9 -1 
9 2 6 10 5 6 0 4 7 -1 
7 7 5 0 4 3 8 9 2 -1 
0 -1 9 0 7 2 0 4 4 -1 
-1 10 -1 2 7 -1 7 6 3 -1 
1 2 3 9 5 9 6 3 9 -1 
2 4 8 9 -1 -1 5 3 4 -1 
0 9 2 -1 -1 9 3 5 10 -1 
9 4 0 8 9 8 1 -1 3 -1 
